param n := 60;
param c := 3000
param : V : p w :=
   0	  15	 403
   1	  86	 287
   2	  80	 310
   3	  11	 427
   4	  25	 281
   5	  67	 292
   6	  24	 451
   7	   4	 265
   8	  77	 284
   9	  11	 450
  10	  32	 250
  11	  99	 300
  12	  64	 400
  13	  25	 278
  14	  46	 322
  15	  91	 374
  16	  50	 261
  17	  40	 365
  18	  33	 380
  19	  28	 276
  20	  15	 344
  21	  80	 464
  22	  56	 252
  23	  92	 284
  24	  21	 394
  25	  60	 269
  26	  84	 337
  27	  31	 375
  28	  16	 297
  29	  51	 328
  30	  14	 498
  31	  23	 250
  32	  29	 252
  33	  26	 374
  34	  25	 304
  35	  99	 322
  36	  40	 355
  37	  81	 276
  38	   6	 369
  39	  26	 485
  40	  85	 253
  41	  74	 262
  42	  23	 357
  43	  83	 275
  44	  97	 368
  45	  33	 424
  46	  14	 259
  47	  22	 317
  48	  28	 471
  49	  94	 250
  50	  36	 279
  51	  67	 388
  52	  56	 273
  53	  80	 339
  54	   2	 449
  55	  72	 275
  56	  11	 276
  57	  25	 405
  58	  15	 274
  59	  95	 321
;

set E :=
   0	   2
   0	   4
   0	   5
   0	   6
   0	   8
   0	  12
   0	  15
   0	  17
   0	  18
   0	  22
   0	  23
   0	  24
   0	  27
   0	  28
   0	  30
   0	  32
   0	  37
   0	  38
   0	  42
   0	  43
   0	  46
   0	  47
   0	  48
   0	  51
   0	  54
   0	  55
   0	  56
   0	  57
   0	  58
   1	   2
   1	   3
   1	   6
   1	   7
   1	   9
   1	  11
   1	  13
   1	  14
   1	  16
   1	  18
   1	  21
   1	  22
   1	  24
   1	  26
   1	  30
   1	  34
   1	  35
   1	  37
   1	  40
   1	  41
   1	  42
   1	  44
   1	  45
   1	  47
   1	  48
   1	  50
   1	  53
   2	   3
   2	   4
   2	   5
   2	   6
   2	   8
   2	   9
   2	  10
   2	  15
   2	  16
   2	  17
   2	  18
   2	  19
   2	  20
   2	  22
   2	  27
   2	  31
   2	  34
   2	  35
   2	  37
   2	  38
   2	  41
   2	  43
   2	  44
   2	  45
   2	  47
   2	  52
   2	  54
   2	  58
   3	   4
   3	   5
   3	   6
   3	   7
   3	   8
   3	  10
   3	  11
   3	  17
   3	  19
   3	  22
   3	  23
   3	  24
   3	  26
   3	  28
   3	  29
   3	  30
   3	  31
   3	  35
   3	  37
   3	  39
   3	  41
   3	  42
   3	  43
   3	  44
   3	  45
   3	  46
   3	  47
   3	  50
   3	  55
   3	  56
   3	  57
   4	   5
   4	   6
   4	  14
   4	  15
   4	  17
   4	  18
   4	  22
   4	  24
   4	  25
   4	  27
   4	  28
   4	  30
   4	  33
   4	  34
   4	  39
   4	  40
   4	  41
   4	  43
   4	  45
   4	  47
   4	  48
   4	  49
   4	  50
   4	  52
   4	  57
   4	  58
   5	   7
   5	   8
   5	   9
   5	  11
   5	  12
   5	  13
   5	  14
   5	  15
   5	  17
   5	  18
   5	  19
   5	  22
   5	  26
   5	  27
   5	  30
   5	  31
   5	  33
   5	  34
   5	  35
   5	  36
   5	  37
   5	  39
   5	  41
   5	  44
   5	  45
   5	  46
   5	  48
   5	  53
   5	  55
   5	  58
   5	  59
   6	   7
   6	   8
   6	  10
   6	  12
   6	  13
   6	  18
   6	  22
   6	  26
   6	  28
   6	  30
   6	  31
   6	  33
   6	  37
   6	  38
   6	  39
   6	  41
   6	  42
   6	  44
   6	  45
   6	  48
   6	  50
   6	  57
   6	  59
   7	   9
   7	  13
   7	  15
   7	  16
   7	  17
   7	  19
   7	  20
   7	  25
   7	  26
   7	  27
   7	  28
   7	  30
   7	  32
   7	  34
   7	  35
   7	  36
   7	  37
   7	  38
   7	  41
   7	  43
   7	  44
   7	  45
   7	  46
   7	  47
   7	  48
   7	  50
   7	  51
   7	  52
   7	  56
   7	  58
   7	  59
   8	   9
   8	  11
   8	  12
   8	  18
   8	  19
   8	  22
   8	  23
   8	  24
   8	  25
   8	  26
   8	  27
   8	  29
   8	  30
   8	  32
   8	  33
   8	  36
   8	  37
   8	  38
   8	  43
   8	  45
   8	  47
   8	  49
   8	  53
   8	  57
   8	  59
   9	  11
   9	  12
   9	  14
   9	  16
   9	  19
   9	  21
   9	  23
   9	  25
   9	  27
   9	  28
   9	  29
   9	  30
   9	  31
   9	  35
   9	  36
   9	  37
   9	  38
   9	  41
   9	  45
   9	  46
   9	  47
   9	  48
   9	  51
   9	  56
   9	  59
  10	  12
  10	  13
  10	  14
  10	  15
  10	  19
  10	  20
  10	  23
  10	  24
  10	  25
  10	  26
  10	  28
  10	  31
  10	  32
  10	  34
  10	  36
  10	  37
  10	  41
  10	  42
  10	  46
  10	  49
  10	  51
  10	  53
  10	  55
  11	  12
  11	  13
  11	  16
  11	  17
  11	  18
  11	  19
  11	  21
  11	  22
  11	  23
  11	  24
  11	  26
  11	  28
  11	  29
  11	  30
  11	  31
  11	  33
  11	  35
  11	  36
  11	  37
  11	  38
  11	  39
  11	  43
  11	  46
  11	  47
  11	  49
  11	  50
  11	  53
  11	  55
  11	  56
  11	  58
  11	  59
  12	  13
  12	  15
  12	  17
  12	  19
  12	  20
  12	  22
  12	  23
  12	  25
  12	  26
  12	  27
  12	  29
  12	  31
  12	  32
  12	  33
  12	  36
  12	  42
  12	  45
  12	  46
  12	  48
  12	  52
  12	  53
  12	  54
  12	  56
  12	  58
  13	  14
  13	  18
  13	  19
  13	  20
  13	  21
  13	  22
  13	  23
  13	  24
  13	  31
  13	  32
  13	  33
  13	  36
  13	  37
  13	  38
  13	  39
  13	  41
  13	  43
  13	  44
  13	  45
  13	  46
  13	  48
  13	  50
  13	  51
  13	  52
  13	  53
  13	  58
  13	  59
  14	  17
  14	  18
  14	  19
  14	  21
  14	  25
  14	  27
  14	  29
  14	  33
  14	  34
  14	  37
  14	  39
  14	  40
  14	  43
  14	  44
  14	  48
  14	  52
  14	  54
  14	  55
  14	  57
  15	  16
  15	  17
  15	  20
  15	  22
  15	  25
  15	  26
  15	  27
  15	  34
  15	  35
  15	  36
  15	  40
  15	  43
  15	  44
  15	  45
  15	  47
  15	  48
  15	  49
  15	  52
  15	  57
  15	  59
  16	  17
  16	  19
  16	  20
  16	  26
  16	  27
  16	  29
  16	  30
  16	  31
  16	  33
  16	  34
  16	  36
  16	  37
  16	  47
  16	  48
  16	  54
  16	  55
  16	  56
  16	  57
  17	  22
  17	  25
  17	  26
  17	  27
  17	  28
  17	  29
  17	  30
  17	  35
  17	  37
  17	  38
  17	  39
  17	  40
  17	  43
  17	  45
  17	  48
  17	  50
  17	  55
  17	  59
  18	  21
  18	  23
  18	  26
  18	  27
  18	  28
  18	  29
  18	  30
  18	  34
  18	  35
  18	  36
  18	  37
  18	  38
  18	  39
  18	  43
  18	  45
  18	  48
  18	  49
  18	  51
  18	  54
  18	  55
  18	  56
  18	  57
  18	  58
  19	  20
  19	  21
  19	  22
  19	  23
  19	  25
  19	  26
  19	  28
  19	  33
  19	  36
  19	  38
  19	  39
  19	  40
  19	  42
  19	  43
  19	  44
  19	  45
  19	  46
  19	  47
  19	  48
  19	  50
  19	  53
  19	  55
  19	  56
  20	  21
  20	  22
  20	  24
  20	  27
  20	  28
  20	  33
  20	  36
  20	  38
  20	  41
  20	  44
  20	  47
  20	  50
  20	  51
  21	  22
  21	  24
  21	  25
  21	  27
  21	  28
  21	  29
  21	  31
  21	  36
  21	  37
  21	  40
  21	  45
  21	  47
  21	  52
  21	  55
  21	  56
  21	  59
  22	  28
  22	  29
  22	  32
  22	  33
  22	  35
  22	  36
  22	  38
  22	  39
  22	  41
  22	  42
  22	  43
  22	  44
  22	  45
  22	  46
  22	  47
  22	  50
  22	  52
  22	  54
  22	  56
  22	  57
  22	  58
  22	  59
  23	  25
  23	  27
  23	  28
  23	  29
  23	  32
  23	  37
  23	  39
  23	  40
  23	  41
  23	  43
  23	  46
  23	  47
  23	  48
  23	  50
  23	  52
  23	  53
  23	  57
  23	  59
  24	  25
  24	  26
  24	  28
  24	  31
  24	  32
  24	  33
  24	  34
  24	  35
  24	  36
  24	  43
  24	  44
  24	  46
  24	  47
  24	  50
  24	  51
  24	  52
  24	  53
  24	  56
  24	  58
  25	  26
  25	  28
  25	  29
  25	  30
  25	  31
  25	  32
  25	  33
  25	  36
  25	  38
  25	  42
  25	  43
  25	  44
  25	  48
  25	  51
  25	  53
  25	  54
  25	  55
  25	  58
  26	  27
  26	  29
  26	  31
  26	  35
  26	  36
  26	  37
  26	  38
  26	  39
  26	  42
  26	  45
  26	  48
  26	  49
  26	  52
  26	  53
  27	  29
  27	  31
  27	  32
  27	  34
  27	  38
  27	  40
  27	  41
  27	  47
  27	  48
  27	  50
  27	  52
  27	  55
  27	  56
  27	  59
  28	  31
  28	  33
  28	  35
  28	  36
  28	  37
  28	  38
  28	  39
  28	  40
  28	  41
  28	  43
  28	  44
  28	  45
  28	  47
  28	  48
  28	  49
  28	  51
  28	  55
  28	  56
  28	  59
  29	  31
  29	  35
  29	  37
  29	  38
  29	  41
  29	  44
  29	  45
  29	  52
  29	  55
  29	  56
  29	  58
  30	  31
  30	  36
  30	  37
  30	  39
  30	  42
  30	  46
  30	  47
  30	  50
  30	  51
  30	  52
  30	  54
  30	  55
  30	  57
  30	  59
  31	  33
  31	  34
  31	  35
  31	  37
  31	  39
  31	  40
  31	  41
  31	  43
  31	  47
  31	  50
  31	  51
  31	  53
  31	  54
  31	  55
  31	  58
  32	  33
  32	  37
  32	  38
  32	  41
  32	  43
  32	  44
  32	  48
  32	  49
  32	  52
  32	  54
  32	  56
  32	  57
  33	  34
  33	  35
  33	  38
  33	  39
  33	  41
  33	  43
  33	  44
  33	  45
  33	  46
  33	  47
  33	  50
  33	  51
  33	  52
  33	  53
  33	  56
  33	  57
  34	  39
  34	  40
  34	  42
  34	  43
  34	  47
  34	  49
  34	  50
  34	  51
  34	  52
  34	  53
  34	  54
  34	  56
  34	  57
  35	  36
  35	  38
  35	  42
  35	  46
  35	  47
  35	  48
  35	  49
  35	  50
  35	  51
  35	  52
  35	  55
  35	  56
  36	  38
  36	  40
  36	  41
  36	  43
  36	  44
  36	  49
  36	  50
  36	  51
  36	  52
  36	  53
  36	  54
  36	  55
  36	  56
  36	  57
  36	  59
  37	  38
  37	  42
  37	  44
  37	  45
  37	  46
  37	  47
  37	  48
  37	  51
  37	  52
  37	  53
  37	  54
  37	  56
  37	  57
  37	  59
  38	  39
  38	  43
  38	  44
  38	  48
  38	  51
  38	  54
  38	  55
  38	  57
  38	  59
  39	  40
  39	  41
  39	  43
  39	  45
  39	  46
  39	  48
  39	  50
  39	  52
  39	  53
  39	  57
  40	  41
  40	  43
  40	  47
  40	  51
  40	  52
  40	  53
  40	  54
  40	  55
  40	  56
  40	  57
  40	  58
  40	  59
  41	  42
  41	  43
  41	  48
  41	  49
  41	  50
  41	  52
  41	  53
  41	  54
  41	  56
  41	  59
  42	  43
  42	  45
  42	  46
  42	  49
  42	  51
  42	  52
  42	  53
  42	  54
  42	  57
  42	  58
  42	  59
  43	  44
  43	  45
  43	  46
  43	  50
  43	  51
  43	  52
  43	  53
  43	  55
  43	  58
  43	  59
  44	  46
  44	  53
  44	  54
  44	  57
  44	  58
  45	  46
  45	  48
  45	  50
  45	  51
  45	  54
  45	  56
  45	  57
  45	  58
  45	  59
  46	  47
  46	  48
  46	  55
  46	  59
  47	  49
  47	  50
  47	  54
  47	  55
  47	  57
  48	  49
  48	  50
  48	  51
  48	  52
  48	  55
  48	  56
  48	  59
  49	  50
  49	  51
  49	  52
  49	  56
  49	  58
  50	  51
  50	  52
  50	  53
  50	  54
  50	  56
  50	  57
  50	  58
  50	  59
  51	  53
  51	  54
  51	  57
  52	  55
  52	  56
  52	  58
  52	  59
  53	  54
  53	  55
  54	  55
  54	  58
  54	  59
  55	  56
  55	  58
  55	  59
  57	  58
  57	  59
  58	  59
;
